SCIP version 5.0.0 [precision: 8 byte] [memory: block] [mode: optimized] [LP solver: NONE] [GitHash: 3bbd232]
Copyright (C) 2002-2017 Konrad-Zuse-Zentrum fuer Informationstechnik Berlin (ZIB)

External codes: 
  Readline EditLine w  GNU library for command line editing (gnu.org/s/readline)
  CppAD 20160000.1     Algorithmic Differentiation of C++ algorithms developed by B. Bell (www.coin-or.org/CppAD)
  ZLIB 1.2.5           General purpose compression library by J. Gailly and M. Adler (zlib.net)
  GMP 6.1.2            GNU Multiple Precision Arithmetic Library developed by T. Granlund (gmplib.org)

user parameter file <scip.set> not found - using default parameters

read problem <../../Split_data/output/parkin/2/1_sample_parkin.logreg>
============

File name	:	../../Split_data/output/parkin/2/1_sample_parkin.logreg
Problem name 	:	1_sample_parkin
Number of data	:	156
Number of var	:	22
The given data has linear independence

[dim=1] time: 0.003045
[dim=2] time: 0.005906
[dim=3] time: 0.008587
[dim=4] time: 0.010676
[dim=5] time: 0.012783
[dim=6] time: 0.015018
[dim=7] Time of forward = 0.017075sec.
AIC: 103.443
k: 6

[dim=22] time: 0.038055
[dim=21] time: 0.041948
[dim=20] time: 0.056469
[dim=19] time: 0.069894
[dim=18] time: 0.07542
[dim=17] time: 0.088823
[dim=16] time: 0.114225
[dim=15] time: 0.120878
[dim=14] time: 0.123051
[dim=13] time: 0.129754
[dim=12] time: 0.131725
[dim=11] time: 0.136439
[dim=10] time: 0.138389
[dim=9] time: 0.140158
[dim=8] time: 0.141614
[dim=7] Time of backward = 0.143033sec.
AIC: 95.9773
k: 8
